(set-info :smt-lib-version 2.6)
(set-logic QF_SLIA)
(set-info :source |
Generated by: Joel Day, Thorsten Ehlers, Mitja Kulczynski, Federico Mora, Florin Manea, Dirk Nowotka, Danny Poulsen, Zhengyang Lu
Application: Test WOORPJE
Target solver: WOORPJE
Publications: Day, J. D., Ehlers, T., Kulczynski, M., Manea, F., Nowotka, D., & Poulsen, D. B. (2019). On solving word equations using SAT. In RP 2019
Description: Enriches a system of 30 word equations by suitable linear constraints
|)
(set-info :license "https://creativecommons.org/licenses/by/4.0/")
(set-info :category "random")
(set-info :status unknown)

(declare-fun H () String)
(declare-fun B () String)
(declare-fun A () String)
(assert (= (str.++  "aabbeefcbbfcdebbd" B "efcacdcd")  (str.++  "aabbeefc" H "cac" A "d") ))
(assert (= (str.++  "affdaadccecabfaaddcdeecfdebcedaaabdbabca" "")  (str.++  "affdaa" A "cecabfaaddcdeecfdebcedaaabdbabca") ))
(assert (= (str.++  "da" A "aaffafffacceccacedefdeafcffdbafbcfaa")  (str.++  "da" A "aaffafffacceccacedefdeafcffdbafbcfaa") ))
(assert (<=(* (str.len A) 14) 70))
(assert (<=(* (str.len H) 14) 364))
(assert (<=(* (str.len B) 12) 1404))
(check-sat)

(exit)
